[[25, 46, 44, 34, 35, 36, 49, 32, 22, 31, 18, 3, 17, 21, 7, 2, 42], [30, 23, 20, 50, 16, 29, 47, 26, 13, 14, 52, 27, 28, 12], [11, 51, 33, 43, 10, 9, 8, 41, 19, 45, 39, 40, 37, 38, 24, 48, 5, 15, 6, 4]]